5
20
34
38
10
25
25
28
22
45
35
31
16
6
38
42
45
43
31
12
27
4
8
32
22
23
41
23
27
1
24
36
10
7
6
44
29
49
12
20
38
6
37
24
11
9
26
11
8
4
1
39
35
18
22
9
43
14
43
16
34
44
10
6
42
48
35
17
29
46
12
21
2
29
9
18
27
19
33
25
7
36
40
21
3
17
4
37
40
1
11
32
28
14
3
14
28
30
18
30
26
34
10
2
30
5
21
33
47
8
19
23
13
13
21
16
3
2
49
15
39
15
13
20
1
